6313408727947397371504,9,1,2,02,2,1,2,04,13,1,2,06,6,1,2,04,1,1,2,01,13,1,2,07,11,1,2,06,13,1,2,01,9,1,2,07,6,1,2,014,1,1,2,01,12,1,2,013,6,1,2,08,12,1,2,08,1,1,2,08,11,1,2,01,5,1,2,03,13,1,2,011,5,1,2,08,11,1,2,06,7,1,2,02,3,1,2,015,6,1,2,01,8,1,2,01,14,1,2,03,3,1,2,03,6,1,2,09,10,1,2,06,7,1,2,011,15,1,2,04,4,1,2,09,15,1,2,015,6,1,2,08,14,1,2,09,13,1,2,012,12,1,2,09,1,1,2,014,7,1,2,06,3,1,2,04,10,1,2,010,13,1,2,09,9,1,2,06,13,1,2,05,11,1,2,08,2,1,2,011,14,1,2,012,8,1,2,06,2,1,2,02,7,1,2,012,6,1,2,0